
Gurobi 11.0.1 (win64) logging started Thu May 16 19:20:17 2024

Set parameter LogFile to value "output/solver_log10.txt"
Gurobi Optimizer version 11.0.1 build v11.0.1rc0 (win64 - Windows 11.0 (22631.2))

CPU model: 11th Gen Intel(R) Core(TM) i7-1165G7 @ 2.80GHz, instruction set [SSE2|AVX|AVX2|AVX512]
Thread count: 4 physical cores, 8 logical processors, using up to 8 threads

Optimize a model with 4355 rows, 1086 columns and 79342 nonzeros
Model fingerprint: 0x3b4d6d6d
Variable types: 568 continuous, 518 integer (518 binary)
Coefficient statistics:
  Matrix range     [4e-01, 1e+05]
  Objective range  [1e+00, 1e+02]
  Bounds range     [1e+00, 1e+00]
  RHS range        [1e-02, 1e+05]

User MIP start produced solution with objective 92898.4 (0.01s)
User MIP start produced solution with objective 92898.4 (0.01s)
Loaded user MIP start with objective 92898.4

Presolve removed 413 rows and 274 columns
Presolve time: 0.10s
Presolved: 3942 rows, 812 columns, 74227 nonzeros
Variable types: 517 continuous, 295 integer (294 binary)

Root relaxation: objective 9.327274e+04, 1009 iterations, 0.06 seconds (0.10 work units)

    Nodes    |    Current Node    |     Objective Bounds      |     Work
 Expl Unexpl |  Obj  Depth IntInf | Incumbent    BestBd   Gap | It/Node Time

     0     0 93272.7412    0    2 92898.4133 93272.7412  0.40%     -    0s
     0     0 93152.4955    0    1 92898.4133 93152.4955  0.27%     -    0s
     0     0 93152.4955    0    1 92898.4133 93152.4955  0.27%     -    0s
     0     0 93152.4955    0    1 92898.4133 93152.4955  0.27%     -    0s
H    0     0                    93152.495521 93152.4955  0.00%     -    0s
     0     0 93152.4955    0    1 93152.4955 93152.4955  0.00%     -    0s

Cutting planes:
  MIR: 1

Explored 1 nodes (1200 simplex iterations) in 0.92 seconds (0.81 work units)
Thread count was 8 (of 8 available processors)

Solution count 3: 93152.5 93152.5 92898.4 

Optimal solution found (tolerance 1.00e-04)
Best objective 9.315249552090e+04, best bound 9.315249552090e+04, gap 0.0000%
